34
0	0
1	0
2	0
3	0
4	3
5	1032
6	434
7	685
8	9
9	437
10	1395
11	230
12	659
13	690
14	1293
15	463
16	2192
17	771
18	2310
19	665
20	2033
21	1630
22	1860
23	0
24	4
25	2196
26	2189
27	2192
28	124
29	2314
30	2305
31	2033
32	695
33	2317
